c ind 10 111 120 13 15 160 161 19 207 209 0
c ind 211 213 215 217 219 221 25 256 259 270 0
c ind 272 274 276 28 281 283 285 318 39 409 0
c ind 41 43 45 5 6 75 81 9 96 0
p cnf 409 1597
-1 -2 11 0
-1 2 110 0
-100 -61 13 0
-100 61 101 0
-101 -65 13 0
-101 65 102 0
-102 -68 13 0
-102 68 103 0
-103 -71 13 0
-103 71 104 0
-104 -77 105 0
-104 77 13 0
-105 -80 13 0
-105 80 106 0
-106 107 0
-106 88 0
-107 108 0
-107 87 0
-108 109 0
-108 86 0
-109 -19 39 0
-109 -39 19 0
-11 -12 14 0
-11 12 16 0
-110 -111 15 0
-110 -15 111 0
-112 -113 110 0
-112 113 133 0
-113 -22 114 0
-113 22 129 0
-114 -30 13 0
-114 30 115 0
-115 -32 116 0
-115 32 129 0
-116 -35 13 0
-116 35 117 0
-117 -47 118 0
-117 47 121 0
-118 -119 19 0
-118 119 13 0
-119 -120 19 0
-119 -19 120 0
-12 -13 9 0
-12 -9 13 0
-121 -52 13 0
-121 52 122 0
-122 -57 13 0
-122 57 123 0
-123 -61 13 0
-123 61 124 0
-124 -65 13 0
-124 65 125 0
-125 -68 13 0
-125 68 126 0
-126 -71 13 0
-126 71 127 0
-127 -77 128 0
-127 77 13 0
-128 -80 13 0
-128 80 129 0
-129 130 0
-129 88 0
-13 0
-130 131 0
-130 87 0
-131 132 0
-131 85 0
-132 -19 41 0
-132 -41 19 0
-133 -134 110 0
-133 134 151 0
-134 -22 135 0
-134 22 148 0
-135 -30 13 0
-135 30 136 0
-136 -32 137 0
-136 32 148 0
-137 -35 13 0
-137 35 138 0
-138 -47 139 0
-138 47 140 0
-139 -119 13 0
-139 119 19 0
-14 -13 15 0
-14 -15 13 0
-140 -52 13 0
-140 52 141 0
-141 -57 13 0
-141 57 142 0
-142 -61 13 0
-142 61 143 0
-143 -65 13 0
-143 65 144 0
-144 -68 13 0
-144 68 145 0
-145 -71 13 0
-145 71 146 0
-146 -77 147 0
-146 77 13 0
-147 -80 13 0
-147 80 148 0
-148 149 0
-148 88 0
-149 150 0
-149 87 0
-150 109 0
-150 132 0
-151 -152 110 0
-151 152 172 0
-152 -22 153 0
-152 22 169 0
-153 -30 13 0
-153 30 154 0
-154 -32 155 0
-154 32 169 0
-155 -35 13 0
-155 35 156 0
-156 -47 13 0
-156 47 157 0
-157 -52 158 0
-157 52 162 0
-158 -159 19 0
-158 159 13 0
-159 -160 161 0
-159 -161 160 0
-16 -17 20 0
-16 17 110 0
-162 -57 13 0
-162 57 163 0
-163 -61 13 0
-163 61 164 0
-164 -65 13 0
-164 65 165 0
-165 -68 13 0
-165 68 166 0
-166 -71 13 0
-166 71 167 0
-167 -77 168 0
-167 77 13 0
-168 -80 13 0
-168 80 169 0
-169 170 0
-169 88 0
-17 18 0
-17 3 0
-170 171 0
-170 84 0
-171 -19 43 0
-171 -43 19 0
-172 -173 110 0
-172 173 189 0
-173 -22 174 0
-173 22 187 0
-174 -30 13 0
-174 30 175 0
-175 -32 176 0
-175 32 187 0
-176 -35 13 0
-176 35 177 0
-177 -47 13 0
-177 47 178 0
-178 -52 179 0
-178 52 180 0
-179 -159 13 0
-179 159 19 0
-18 -19 5 0
-18 -5 19 0
-180 -57 13 0
-180 57 181 0
-181 -61 13 0
-181 61 182 0
-182 -65 13 0
-182 65 183 0
-183 -68 13 0
-183 68 184 0
-184 -71 13 0
-184 71 185 0
-185 -77 186 0
-185 77 13 0
-186 -80 13 0
-186 80 187 0
-187 188 0
-187 88 0
-188 108 0
-188 171 0
-189 -190 110 0
-189 190 229 0
-190 -22 191 0
-190 22 227 0
-191 -30 13 0
-191 30 192 0
-192 -32 193 0
-192 32 227 0
-193 -35 13 0
-193 35 194 0
-194 -47 13 0
-194 47 195 0
-195 -52 13 0
-195 52 196 0
-196 -57 13 0
-196 57 197 0
-197 -61 198 0
-197 61 222 0
-198 -199 13 0
-198 199 19 0
-199 200 0
-199 220 0
-2 3 7 0
-20 -21 14 0
-20 21 89 0
-200 201 0
-200 218 0
-201 202 0
-201 216 0
-202 203 0
-202 214 0
-203 204 0
-203 212 0
-204 205 0
-204 210 0
-205 206 0
-205 208 0
-206 -13 207 0
-206 -207 13 0
-208 -13 209 0
-208 -209 13 0
-21 -22 29 0
-21 22 82 0
-210 -13 211 0
-210 -211 13 0
-212 -13 213 0
-212 -213 13 0
-214 -13 215 0
-214 -215 13 0
-216 -13 217 0
-216 -217 13 0
-218 -13 219 0
-218 -219 13 0
-22 23 26 0
-220 -13 221 0
-220 -221 13 0
-222 -65 13 0
-222 65 223 0
-223 -68 13 0
-223 68 224 0
-224 -71 13 0
-224 71 225 0
-225 -77 226 0
-225 77 13 0
-226 -80 13 0
-226 80 227 0
-227 228 0
-227 88 0
-228 131 0
-228 171 0
-229 -230 247 0
-229 230 390 0
-23 -24 0
-230 -22 231 0
-230 22 245 0
-231 -30 13 0
-231 30 232 0
-232 -32 233 0
-232 32 245 0
-233 -35 234 0
-233 35 235 0
-234 -95 13 0
-234 95 19 0
-235 -47 13 0
-235 47 236 0
-236 -52 13 0
-236 52 237 0
-237 -57 19 0
-237 57 238 0
-238 -61 239 0
-238 61 240 0
-239 -199 19 0
-239 199 13 0
-24 -25 6 0
-24 -6 25 0
-240 -65 19 0
-240 65 241 0
-241 -68 19 0
-241 68 242 0
-242 -71 13 0
-242 71 243 0
-243 -77 244 0
-243 77 13 0
-244 -80 13 0
-244 80 245 0
-245 246 0
-245 88 0
-246 150 0
-246 171 0
-247 -248 389 0
-247 248 14 0
-248 -22 249 0
-248 22 319 0
-249 -30 13 0
-249 30 250 0
-250 -32 251 0
-250 32 319 0
-251 -252 319 0
-251 252 320 0
-252 -253 260 0
-252 253 286 0
-253 254 257 0
-254 -255 0
-255 -25 256 0
-255 -256 25 0
-257 -258 0
-258 -259 28 0
-258 -28 259 0
-26 -27 0
-260 -261 19 0
-260 261 262 0
-261 -13 28 0
-261 -28 13 0
-262 -263 265 0
-262 263 286 0
-263 254 0
-263 264 0
-264 -19 25 0
-264 -25 19 0
-265 -266 277 0
-265 266 293 0
-266 267 0
-266 275 0
-267 268 0
-267 273 0
-268 269 0
-268 271 0
-269 -13 270 0
-269 -270 13 0
-27 -10 28 0
-27 -28 10 0
-271 -13 272 0
-271 -272 13 0
-273 -13 274 0
-273 -274 13 0
-275 -13 276 0
-275 -276 13 0
-277 -278 13 0
-277 278 286 0
-278 279 0
-278 284 0
-279 280 0
-279 282 0
-280 -19 281 0
-280 -281 19 0
-282 -19 283 0
-282 -283 19 0
-284 -19 285 0
-284 -285 19 0
-286 287 0
-286 292 0
-287 288 0
-287 291 0
-288 289 0
-288 290 0
-289 -13 270 0
-289 -270 13 0
-29 -30 19 0
-29 30 31 0
-290 -13 272 0
-290 -272 13 0
-291 -13 274 0
-291 -274 13 0
-292 -13 276 0
-292 -276 13 0
-293 -294 298 0
-293 294 300 0
-294 275 0
-294 295 0
-295 273 0
-295 296 0
-296 271 0
-296 297 0
-297 -19 270 0
-297 -270 19 0
-298 -299 13 0
-298 299 286 0
-299 -13 283 0
-299 -283 13 0
-3 -4 0
-30 -10 13 0
-30 -13 10 0
-300 -301 305 0
-300 301 308 0
-301 275 0
-301 302 0
-302 273 0
-302 303 0
-303 269 0
-303 304 0
-304 -19 272 0
-304 -272 19 0
-305 -306 13 0
-305 306 286 0
-306 279 0
-306 307 0
-307 -13 285 0
-307 -285 13 0
-308 -309 298 0
-308 309 312 0
-309 275 0
-309 310 0
-31 -32 34 0
-31 32 82 0
-310 273 0
-310 311 0
-311 297 0
-311 304 0
-312 -313 316 0
-312 313 286 0
-313 275 0
-313 314 0
-314 268 0
-314 315 0
-315 -19 274 0
-315 -274 19 0
-316 -317 19 0
-316 317 286 0
-317 -19 318 0
-317 -318 19 0
-319 -19 75 0
-319 -75 19 0
-32 23 0
-32 33 0
-320 -321 319 0
-320 321 337 0
-321 -253 322 0
-321 253 326 0
-322 -261 13 0
-322 261 323 0
-323 -263 324 0
-323 263 326 0
-324 -266 325 0
-324 266 330 0
-325 -278 19 0
-325 278 326 0
-326 292 0
-326 327 0
-327 291 0
-327 328 0
-328 290 0
-328 329 0
-329 -19 270 0
-329 -270 19 0
-33 -19 6 0
-33 -6 19 0
-330 -294 331 0
-330 294 332 0
-331 -299 13 0
-331 299 326 0
-332 -301 333 0
-332 301 334 0
-333 -306 13 0
-333 306 326 0
-334 -309 331 0
-334 309 335 0
-335 -313 336 0
-335 313 326 0
-336 -317 13 0
-336 317 326 0
-337 -338 319 0
-337 338 355 0
-338 -253 339 0
-338 253 343 0
-339 -261 13 0
-339 261 340 0
-34 -35 13 0
-34 35 46 0
-340 -263 341 0
-340 263 343 0
-341 -266 342 0
-341 266 347 0
-342 -278 13 0
-342 278 343 0
-343 292 0
-343 344 0
-344 291 0
-344 345 0
-345 289 0
-345 346 0
-346 -19 272 0
-346 -272 19 0
-347 -294 348 0
-347 294 349 0
-348 -299 19 0
-348 299 343 0
-349 -301 350 0
-349 301 351 0
-35 36 0
-35 44 0
-350 -306 13 0
-350 306 343 0
-351 -309 352 0
-351 309 353 0
-352 -299 13 0
-352 299 343 0
-353 -313 354 0
-353 313 343 0
-354 -317 13 0
-354 317 343 0
-355 -356 19 0
-355 356 371 0
-356 -253 357 0
-356 253 361 0
-357 -261 13 0
-357 261 358 0
-358 -263 359 0
-358 263 361 0
-359 -266 360 0
-359 266 364 0
-36 37 0
-36 42 0
-360 -278 13 0
-360 278 361 0
-361 292 0
-361 362 0
-362 291 0
-362 363 0
-363 329 0
-363 346 0
-364 -294 365 0
-364 294 366 0
-365 -299 13 0
-365 299 361 0
-366 -301 367 0
-366 301 368 0
-367 -306 19 0
-367 306 361 0
-368 -309 365 0
-368 309 369 0
-369 -313 370 0
-369 313 361 0
-37 38 0
-37 40 0
-370 -317 13 0
-370 317 361 0
-371 -372 388 0
-371 372 319 0
-372 -253 373 0
-372 253 377 0
-373 -261 13 0
-373 261 374 0
-374 -263 375 0
-374 263 377 0
-375 -266 376 0
-375 266 380 0
-376 -278 13 0
-376 278 377 0
-377 292 0
-377 378 0
-378 288 0
-378 379 0
-379 -19 274 0
-379 -274 19 0
-38 -13 39 0
-38 -39 13 0
-380 -294 381 0
-380 294 382 0
-381 -299 13 0
-381 299 377 0
-382 -301 383 0
-382 301 384 0
-383 -306 13 0
-383 306 377 0
-384 -309 385 0
-384 309 386 0
-385 -299 19 0
-385 299 377 0
-386 -313 387 0
-386 313 377 0
-387 -317 13 0
-387 317 377 0
-388 -80 13 0
-388 80 319 0
-389 -15 19 0
-389 -19 15 0
-390 -391 407 0
-390 391 110 0
-391 -22 392 0
-391 22 405 0
-392 -30 13 0
-392 30 393 0
-393 -32 394 0
-393 32 405 0
-394 -35 13 0
-394 35 395 0
-395 -47 13 0
-395 47 396 0
-396 -52 13 0
-396 52 397 0
-397 -57 13 0
-397 57 398 0
-398 -61 13 0
-398 61 399 0
-399 -65 13 0
-399 65 400 0
-4 -5 6 0
-4 -6 5 0
-40 -13 41 0
-40 -41 13 0
-400 -68 13 0
-400 68 401 0
-401 -71 402 0
-401 71 403 0
-402 -74 19 0
-402 74 13 0
-403 -77 404 0
-403 77 13 0
-404 -80 13 0
-404 80 405 0
-405 406 0
-405 83 0
-406 -19 45 0
-406 -45 19 0
-407 -408 14 0
-407 408 110 0
-408 -19 409 0
-408 -409 19 0
-42 -13 43 0
-42 -43 13 0
-44 -13 45 0
-44 -45 13 0
-46 -47 13 0
-46 47 51 0
-47 44 0
-47 48 0
-48 42 0
-48 49 0
-49 40 0
-49 50 0
-50 -19 39 0
-50 -39 19 0
-51 -52 13 0
-51 52 56 0
-52 44 0
-52 53 0
-53 42 0
-53 54 0
-54 38 0
-54 55 0
-55 -19 41 0
-55 -41 19 0
-56 -57 13 0
-56 57 60 0
-57 44 0
-57 58 0
-58 42 0
-58 59 0
-59 50 0
-59 55 0
-60 -61 13 0
-60 61 64 0
-61 44 0
-61 62 0
-62 37 0
-62 63 0
-63 -19 43 0
-63 -43 19 0
-64 -65 13 0
-64 65 67 0
-65 44 0
-65 66 0
-66 49 0
-66 63 0
-67 -68 13 0
-67 68 70 0
-68 44 0
-68 69 0
-69 54 0
-69 63 0
-7 -8 0
-70 -71 73 0
-70 71 76 0
-71 44 0
-71 72 0
-72 59 0
-72 63 0
-73 -74 13 0
-73 74 19 0
-74 -19 75 0
-74 -75 19 0
-76 -77 79 0
-76 77 19 0
-77 36 0
-77 78 0
-78 -19 45 0
-78 -45 19 0
-79 -80 19 0
-79 80 82 0
-8 -10 9 0
-8 -9 10 0
-80 -19 81 0
-80 -81 19 0
-82 83 0
-82 88 0
-83 84 0
-83 87 0
-84 85 0
-84 86 0
-85 -13 39 0
-85 -39 13 0
-86 -13 41 0
-86 -41 13 0
-87 -13 43 0
-87 -43 13 0
-88 -13 45 0
-88 -45 13 0
-89 -90 110 0
-89 90 112 0
-90 -22 91 0
-90 22 106 0
-91 -30 13 0
-91 30 92 0
-92 -32 93 0
-92 32 106 0
-93 -35 94 0
-93 35 97 0
-94 -95 19 0
-94 95 13 0
-95 -19 96 0
-95 -96 19 0
-97 -47 13 0
-97 47 98 0
-98 -52 13 0
-98 52 99 0
-99 -57 13 0
-99 57 100 0
1 -11 -110 0
1 -2 -11 0
1 0
1 2 -110 0
100 -13 -101 0
100 -61 -13 0
100 61 -101 0
101 -13 -102 0
101 -65 -13 0
101 65 -102 0
102 -13 -103 0
102 -68 -13 0
102 68 -103 0
103 -13 -104 0
103 -71 -13 0
103 71 -104 0
104 -105 -13 0
104 -77 -105 0
104 77 -13 0
105 -13 -106 0
105 -80 -13 0
105 80 -106 0
106 -107 -88 0
107 -108 -87 0
108 -109 -86 0
109 -19 -39 0
109 19 39 0
11 -12 -14 0
11 -14 -16 0
11 12 -16 0
110 -15 -111 0
110 15 111 0
112 -110 -133 0
112 -113 -110 0
112 113 -133 0
113 -114 -129 0
113 -22 -114 0
113 22 -129 0
114 -13 -115 0
114 -30 -13 0
114 30 -115 0
115 -116 -129 0
115 -32 -116 0
115 32 -129 0
116 -13 -117 0
116 -35 -13 0
116 35 -117 0
117 -118 -121 0
117 -47 -118 0
117 47 -121 0
118 -119 -19 0
118 -19 -13 0
118 119 -13 0
119 -120 -19 0
119 120 19 0
12 -9 -13 0
12 9 13 0
121 -13 -122 0
121 -52 -13 0
121 52 -122 0
122 -13 -123 0
122 -57 -13 0
122 57 -123 0
123 -13 -124 0
123 -61 -13 0
123 61 -124 0
124 -13 -125 0
124 -65 -13 0
124 65 -125 0
125 -13 -126 0
125 -68 -13 0
125 68 -126 0
126 -13 -127 0
126 -71 -13 0
126 71 -127 0
127 -128 -13 0
127 -77 -128 0
127 77 -13 0
128 -13 -129 0
128 -80 -13 0
128 80 -129 0
129 -130 -88 0
130 -131 -87 0
131 -85 -132 0
132 -19 -41 0
132 19 41 0
133 -110 -151 0
133 -134 -110 0
133 134 -151 0
134 -135 -148 0
134 -22 -135 0
134 22 -148 0
135 -13 -136 0
135 -30 -13 0
135 30 -136 0
136 -137 -148 0
136 -32 -137 0
136 32 -148 0
137 -13 -138 0
137 -35 -13 0
137 35 -138 0
138 -139 -140 0
138 -47 -139 0
138 47 -140 0
139 -119 -13 0
139 -13 -19 0
139 119 -19 0
14 -15 -13 0
14 15 13 0
140 -13 -141 0
140 -52 -13 0
140 52 -141 0
141 -13 -142 0
141 -57 -13 0
141 57 -142 0
142 -13 -143 0
142 -61 -13 0
142 61 -143 0
143 -13 -144 0
143 -65 -13 0
143 65 -144 0
144 -13 -145 0
144 -68 -13 0
144 68 -145 0
145 -13 -146 0
145 -71 -13 0
145 71 -146 0
146 -147 -13 0
146 -77 -147 0
146 77 -13 0
147 -13 -148 0
147 -80 -13 0
147 80 -148 0
148 -149 -88 0
149 -150 -87 0
150 -109 -132 0
151 -110 -172 0
151 -152 -110 0
151 152 -172 0
152 -153 -169 0
152 -22 -153 0
152 22 -169 0
153 -13 -154 0
153 -30 -13 0
153 30 -154 0
154 -155 -169 0
154 -32 -155 0
154 32 -169 0
155 -13 -156 0
155 -35 -13 0
155 35 -156 0
156 -13 -157 0
156 -47 -13 0
156 47 -157 0
157 -158 -162 0
157 -52 -158 0
157 52 -162 0
158 -159 -19 0
158 -19 -13 0
158 159 -13 0
159 -160 -161 0
159 160 161 0
16 -17 -20 0
16 -20 -110 0
16 17 -110 0
162 -13 -163 0
162 -57 -13 0
162 57 -163 0
163 -13 -164 0
163 -61 -13 0
163 61 -164 0
164 -13 -165 0
164 -65 -13 0
164 65 -165 0
165 -13 -166 0
165 -68 -13 0
165 68 -166 0
166 -13 -167 0
166 -71 -13 0
166 71 -167 0
167 -168 -13 0
167 -77 -168 0
167 77 -13 0
168 -13 -169 0
168 -80 -13 0
168 80 -169 0
169 -170 -88 0
17 -3 -18 0
170 -84 -171 0
171 -19 -43 0
171 19 43 0
172 -110 -189 0
172 -173 -110 0
172 173 -189 0
173 -174 -187 0
173 -22 -174 0
173 22 -187 0
174 -13 -175 0
174 -30 -13 0
174 30 -175 0
175 -176 -187 0
175 -32 -176 0
175 32 -187 0
176 -13 -177 0
176 -35 -13 0
176 35 -177 0
177 -13 -178 0
177 -47 -13 0
177 47 -178 0
178 -179 -180 0
178 -52 -179 0
178 52 -180 0
179 -13 -19 0
179 -159 -13 0
179 159 -19 0
18 -5 -19 0
18 5 19 0
180 -13 -181 0
180 -57 -13 0
180 57 -181 0
181 -13 -182 0
181 -61 -13 0
181 61 -182 0
182 -13 -183 0
182 -65 -13 0
182 65 -183 0
183 -13 -184 0
183 -68 -13 0
183 68 -184 0
184 -13 -185 0
184 -71 -13 0
184 71 -185 0
185 -186 -13 0
185 -77 -186 0
185 77 -13 0
186 -13 -187 0
186 -80 -13 0
186 80 -187 0
187 -188 -88 0
188 -108 -171 0
189 -110 -229 0
189 -190 -110 0
189 190 -229 0
19 0
190 -191 -227 0
190 -22 -191 0
190 22 -227 0
191 -13 -192 0
191 -30 -13 0
191 30 -192 0
192 -193 -227 0
192 -32 -193 0
192 32 -227 0
193 -13 -194 0
193 -35 -13 0
193 35 -194 0
194 -13 -195 0
194 -47 -13 0
194 47 -195 0
195 -13 -196 0
195 -52 -13 0
195 52 -196 0
196 -13 -197 0
196 -57 -13 0
196 57 -197 0
197 -198 -222 0
197 -61 -198 0
197 61 -222 0
198 -13 -19 0
198 -199 -13 0
198 199 -19 0
199 -200 -220 0
2 -3 0
2 -7 0
20 -14 -89 0
20 -21 -14 0
20 21 -89 0
200 -201 -218 0
201 -202 -216 0
202 -203 -214 0
203 -204 -212 0
204 -205 -210 0
205 -206 -208 0
206 -207 -13 0
206 207 13 0
208 -209 -13 0
208 209 13 0
21 -22 -29 0
21 -29 -82 0
21 22 -82 0
210 -211 -13 0
210 211 13 0
212 -213 -13 0
212 213 13 0
214 -215 -13 0
214 215 13 0
216 -217 -13 0
216 217 13 0
218 -219 -13 0
218 219 13 0
22 -23 0
22 -26 0
220 -221 -13 0
220 221 13 0
222 -13 -223 0
222 -65 -13 0
222 65 -223 0
223 -13 -224 0
223 -68 -13 0
223 68 -224 0
224 -13 -225 0
224 -71 -13 0
224 71 -225 0
225 -226 -13 0
225 -77 -226 0
225 77 -13 0
226 -13 -227 0
226 -80 -13 0
226 80 -227 0
227 -228 -88 0
228 -131 -171 0
229 -230 -247 0
229 -247 -390 0
229 230 -390 0
23 24 0
230 -22 -231 0
230 -231 -245 0
230 22 -245 0
231 -13 -232 0
231 -30 -13 0
231 30 -232 0
232 -233 -245 0
232 -32 -233 0
232 32 -245 0
233 -234 -235 0
233 -35 -234 0
233 35 -235 0
234 -13 -19 0
234 -95 -13 0
234 95 -19 0
235 -13 -236 0
235 -47 -13 0
235 47 -236 0
236 -13 -237 0
236 -52 -13 0
236 52 -237 0
237 -19 -238 0
237 -57 -19 0
237 57 -238 0
238 -239 -240 0
238 -61 -239 0
238 61 -240 0
239 -19 -13 0
239 -199 -19 0
239 199 -13 0
24 -6 -25 0
24 6 25 0
240 -19 -241 0
240 -65 -19 0
240 65 -241 0
241 -19 -242 0
241 -68 -19 0
241 68 -242 0
242 -13 -243 0
242 -71 -13 0
242 71 -243 0
243 -244 -13 0
243 -77 -244 0
243 77 -13 0
244 -13 -245 0
244 -80 -13 0
244 80 -245 0
245 -246 -88 0
246 -150 -171 0
247 -248 -389 0
247 -389 -14 0
247 248 -14 0
248 -22 -249 0
248 -249 -319 0
248 22 -319 0
249 -13 -250 0
249 -30 -13 0
249 30 -250 0
250 -251 -319 0
250 -32 -251 0
250 32 -319 0
251 -252 -319 0
251 -319 -320 0
251 252 -320 0
252 -253 -260 0
252 -260 -286 0
252 253 -286 0
253 -254 0
253 -257 0
254 255 0
255 -25 -256 0
255 25 256 0
257 258 0
258 -28 -259 0
258 28 259 0
26 27 0
260 -19 -262 0
260 -261 -19 0
260 261 -262 0
261 -28 -13 0
261 28 13 0
262 -263 -265 0
262 -265 -286 0
262 263 -286 0
263 -254 -264 0
264 -25 -19 0
264 25 19 0
265 -266 -277 0
265 -277 -293 0
265 266 -293 0
266 -267 -275 0
267 -268 -273 0
268 -269 -271 0
269 -270 -13 0
269 270 13 0
27 -10 -28 0
27 10 28 0
271 -272 -13 0
271 272 13 0
273 -274 -13 0
273 274 13 0
275 -276 -13 0
275 276 13 0
277 -13 -286 0
277 -278 -13 0
277 278 -286 0
278 -279 -284 0
279 -280 -282 0
280 -281 -19 0
280 281 19 0
282 -283 -19 0
282 283 19 0
284 -285 -19 0
284 285 19 0
286 -287 -292 0
287 -288 -291 0
288 -289 -290 0
289 -13 -270 0
289 13 270 0
29 -19 -31 0
29 -30 -19 0
29 30 -31 0
290 -13 -272 0
290 13 272 0
291 -13 -274 0
291 13 274 0
292 -13 -276 0
292 13 276 0
293 -294 -298 0
293 -298 -300 0
293 294 -300 0
294 -295 -275 0
295 -296 -273 0
296 -297 -271 0
297 -270 -19 0
297 270 19 0
298 -13 -286 0
298 -299 -13 0
298 299 -286 0
299 -283 -13 0
299 283 13 0
3 4 0
30 -10 -13 0
30 10 13 0
300 -301 -305 0
300 -305 -308 0
300 301 -308 0
301 -302 -275 0
302 -303 -273 0
303 -269 -304 0
304 -272 -19 0
304 272 19 0
305 -13 -286 0
305 -306 -13 0
305 306 -286 0
306 -279 -307 0
307 -285 -13 0
307 285 13 0
308 -298 -312 0
308 -309 -298 0
308 309 -312 0
309 -310 -275 0
31 -32 -34 0
31 -34 -82 0
31 32 -82 0
310 -311 -273 0
311 -297 -304 0
312 -313 -316 0
312 -316 -286 0
312 313 -286 0
313 -314 -275 0
314 -268 -315 0
315 -274 -19 0
315 274 19 0
316 -19 -286 0
316 -317 -19 0
316 317 -286 0
317 -318 -19 0
317 318 19 0
319 -19 -75 0
319 19 75 0
32 -23 -33 0
320 -319 -337 0
320 -321 -319 0
320 321 -337 0
321 -253 -322 0
321 -322 -326 0
321 253 -326 0
322 -13 -323 0
322 -261 -13 0
322 261 -323 0
323 -263 -324 0
323 -324 -326 0
323 263 -326 0
324 -266 -325 0
324 -325 -330 0
324 266 -330 0
325 -19 -326 0
325 -278 -19 0
325 278 -326 0
326 -327 -292 0
327 -328 -291 0
328 -329 -290 0
329 -19 -270 0
329 19 270 0
33 -6 -19 0
33 6 19 0
330 -294 -331 0
330 -331 -332 0
330 294 -332 0
331 -13 -326 0
331 -299 -13 0
331 299 -326 0
332 -301 -333 0
332 -333 -334 0
332 301 -334 0
333 -13 -326 0
333 -306 -13 0
333 306 -326 0
334 -309 -331 0
334 -331 -335 0
334 309 -335 0
335 -313 -336 0
335 -336 -326 0
335 313 -326 0
336 -13 -326 0
336 -317 -13 0
336 317 -326 0
337 -319 -355 0
337 -338 -319 0
337 338 -355 0
338 -253 -339 0
338 -339 -343 0
338 253 -343 0
339 -13 -340 0
339 -261 -13 0
339 261 -340 0
34 -13 -46 0
34 -35 -13 0
34 35 -46 0
340 -263 -341 0
340 -341 -343 0
340 263 -343 0
341 -266 -342 0
341 -342 -347 0
341 266 -347 0
342 -13 -343 0
342 -278 -13 0
342 278 -343 0
343 -344 -292 0
344 -345 -291 0
345 -289 -346 0
346 -19 -272 0
346 19 272 0
347 -294 -348 0
347 -348 -349 0
347 294 -349 0
348 -19 -343 0
348 -299 -19 0
348 299 -343 0
349 -301 -350 0
349 -350 -351 0
349 301 -351 0
35 -36 -44 0
350 -13 -343 0
350 -306 -13 0
350 306 -343 0
351 -309 -352 0
351 -352 -353 0
351 309 -353 0
352 -13 -343 0
352 -299 -13 0
352 299 -343 0
353 -313 -354 0
353 -354 -343 0
353 313 -343 0
354 -13 -343 0
354 -317 -13 0
354 317 -343 0
355 -19 -371 0
355 -356 -19 0
355 356 -371 0
356 -253 -357 0
356 -357 -361 0
356 253 -361 0
357 -13 -358 0
357 -261 -13 0
357 261 -358 0
358 -263 -359 0
358 -359 -361 0
358 263 -361 0
359 -266 -360 0
359 -360 -364 0
359 266 -364 0
36 -37 -42 0
360 -13 -361 0
360 -278 -13 0
360 278 -361 0
361 -362 -292 0
362 -363 -291 0
363 -329 -346 0
364 -294 -365 0
364 -365 -366 0
364 294 -366 0
365 -13 -361 0
365 -299 -13 0
365 299 -361 0
366 -301 -367 0
366 -367 -368 0
366 301 -368 0
367 -19 -361 0
367 -306 -19 0
367 306 -361 0
368 -309 -365 0
368 -365 -369 0
368 309 -369 0
369 -313 -370 0
369 -370 -361 0
369 313 -361 0
37 -38 -40 0
370 -13 -361 0
370 -317 -13 0
370 317 -361 0
371 -372 -388 0
371 -388 -319 0
371 372 -319 0
372 -253 -373 0
372 -373 -377 0
372 253 -377 0
373 -13 -374 0
373 -261 -13 0
373 261 -374 0
374 -263 -375 0
374 -375 -377 0
374 263 -377 0
375 -266 -376 0
375 -376 -380 0
375 266 -380 0
376 -13 -377 0
376 -278 -13 0
376 278 -377 0
377 -378 -292 0
378 -288 -379 0
379 -19 -274 0
379 19 274 0
38 -39 -13 0
38 39 13 0
380 -294 -381 0
380 -381 -382 0
380 294 -382 0
381 -13 -377 0
381 -299 -13 0
381 299 -377 0
382 -301 -383 0
382 -383 -384 0
382 301 -384 0
383 -13 -377 0
383 -306 -13 0
383 306 -377 0
384 -309 -385 0
384 -385 -386 0
384 309 -386 0
385 -19 -377 0
385 -299 -19 0
385 299 -377 0
386 -313 -387 0
386 -387 -377 0
386 313 -377 0
387 -13 -377 0
387 -317 -13 0
387 317 -377 0
388 -13 -319 0
388 -80 -13 0
388 80 -319 0
389 -15 -19 0
389 15 19 0
390 -391 -407 0
390 -407 -110 0
390 391 -110 0
391 -22 -392 0
391 -392 -405 0
391 22 -405 0
392 -13 -393 0
392 -30 -13 0
392 30 -393 0
393 -32 -394 0
393 -394 -405 0
393 32 -405 0
394 -13 -395 0
394 -35 -13 0
394 35 -395 0
395 -13 -396 0
395 -47 -13 0
395 47 -396 0
396 -13 -397 0
396 -52 -13 0
396 52 -397 0
397 -13 -398 0
397 -57 -13 0
397 57 -398 0
398 -13 -399 0
398 -61 -13 0
398 61 -399 0
399 -13 -400 0
399 -65 -13 0
399 65 -400 0
4 -5 -6 0
4 5 6 0
40 -41 -13 0
40 41 13 0
400 -13 -401 0
400 -68 -13 0
400 68 -401 0
401 -402 -403 0
401 -71 -402 0
401 71 -403 0
402 -19 -13 0
402 -74 -19 0
402 74 -13 0
403 -404 -13 0
403 -77 -404 0
403 77 -13 0
404 -13 -405 0
404 -80 -13 0
404 80 -405 0
405 -83 -406 0
406 -19 -45 0
406 19 45 0
407 -14 -110 0
407 -408 -14 0
407 408 -110 0
408 -409 -19 0
408 409 19 0
42 -43 -13 0
42 43 13 0
44 -45 -13 0
44 45 13 0
46 -13 -51 0
46 -47 -13 0
46 47 -51 0
47 -48 -44 0
48 -49 -42 0
49 -50 -40 0
50 -39 -19 0
50 39 19 0
51 -13 -56 0
51 -52 -13 0
51 52 -56 0
52 -53 -44 0
53 -54 -42 0
54 -38 -55 0
55 -41 -19 0
55 41 19 0
56 -13 -60 0
56 -57 -13 0
56 57 -60 0
57 -58 -44 0
58 -59 -42 0
59 -50 -55 0
60 -13 -64 0
60 -61 -13 0
60 61 -64 0
61 -62 -44 0
62 -37 -63 0
63 -43 -19 0
63 43 19 0
64 -13 -67 0
64 -65 -13 0
64 65 -67 0
65 -66 -44 0
66 -49 -63 0
67 -13 -70 0
67 -68 -13 0
67 68 -70 0
68 -69 -44 0
69 -54 -63 0
7 8 0
70 -71 -73 0
70 -73 -76 0
70 71 -76 0
71 -72 -44 0
72 -59 -63 0
73 -13 -19 0
73 -74 -13 0
73 74 -19 0
74 -75 -19 0
74 75 19 0
76 -77 -79 0
76 -79 -19 0
76 77 -19 0
77 -36 -78 0
78 -45 -19 0
78 45 19 0
79 -19 -82 0
79 -80 -19 0
79 80 -82 0
8 -9 -10 0
8 9 10 0
80 -81 -19 0
80 81 19 0
82 -83 -88 0
83 -84 -87 0
84 -85 -86 0
85 -13 -39 0
85 13 39 0
86 -13 -41 0
86 13 41 0
87 -13 -43 0
87 13 43 0
88 -13 -45 0
88 13 45 0
89 -110 -112 0
89 -90 -110 0
89 90 -112 0
90 -22 -91 0
90 -91 -106 0
90 22 -106 0
91 -13 -92 0
91 -30 -13 0
91 30 -92 0
92 -32 -93 0
92 -93 -106 0
92 32 -106 0
93 -35 -94 0
93 -94 -97 0
93 35 -97 0
94 -19 -13 0
94 -95 -19 0
94 95 -13 0
95 -96 -19 0
95 96 19 0
97 -13 -98 0
97 -47 -13 0
97 47 -98 0
98 -13 -99 0
98 -52 -13 0
98 52 -99 0
99 -13 -100 0
99 -57 -13 0
99 57 -100 0
